# Objective value = 5
x0,1_3 0
x0,1_4 0
x0,1_7 0
x0,1_15 0
x0,1_19 0
x0,2_3 0
x0,2_4 0
x0,2_7 0
x0,2_15 0
x0,2_19 0
x0,3_3 0
x0,3_4 0
x0,3_7 0
x0,3_15 0
x0,3_19 0
x0,4_3 0
x0,4_4 0
x0,4_7 0
x0,4_15 0
x0,4_19 0
x1,2_3 0
x1,2_4 1
x1,2_7 0
x1,2_15 0
x1,2_19 0
x1,3_3 0
x1,3_4 0
x1,3_7 1
x1,3_15 0
x1,3_19 0
x1,4_3 0
x1,4_4 0
x1,4_7 0
x1,4_15 0
x1,4_19 1
x2,3_3 1
x2,3_4 0
x2,3_7 0
x2,3_15 0
x2,3_19 0
x2,4_3 0
x2,4_4 0
x2,4_7 0
x2,4_15 1
x2,4_19 0
x3,4_3 0
x3,4_4 0
x3,4_7 0
x3,4_15 0
x3,4_19 0
p0 0
p1 1
p2 5
p3 8
p4 20
